; DUP2 SLOAD PUSH cw_1 SWAP3 SWAP1 => DUP2 PUSH cw_1 SWAP3 SLOAD
(set-option :produce-proofs true)
; 
(set-info :status unknown)
(declare-fun storage_t ((_ BitVec 256) (_ BitVec 256) (_ BitVec 256) (_ BitVec 256) Int (_ BitVec 256)) (_ BitVec 256))
(declare-fun w_1 () (_ BitVec 256))
(declare-fun storage_s ((_ BitVec 256) (_ BitVec 256) (_ BitVec 256) (_ BitVec 256) Int (_ BitVec 256)) (_ BitVec 256))
(declare-fun exc_halt_t (Int) Bool)
(declare-fun exc_halt_s (Int) Bool)
(declare-fun stack_t ((_ BitVec 256) (_ BitVec 256) (_ BitVec 256) (_ BitVec 256) Int (_ BitVec 6)) (_ BitVec 256))
(declare-fun stack_s ((_ BitVec 256) (_ BitVec 256) (_ BitVec 256) (_ BitVec 256) Int (_ BitVec 6)) (_ BitVec 256))
(declare-fun sc_t (Int) (_ BitVec 6))
(declare-fun sc_s (Int) (_ BitVec 6))
(declare-fun used_gas_t ((_ BitVec 256) (_ BitVec 256) (_ BitVec 256) (_ BitVec 256) Int) Int)
(declare-fun used_gas_s ((_ BitVec 256) (_ BitVec 256) (_ BitVec 256) (_ BitVec 256) Int) Int)
(assert
 (exists ((x_0 (_ BitVec 256)) (x_1 (_ BitVec 256)) (x_SLOAD_0 (_ BitVec 256)) )(let (($x4170 (forall ((w (_ BitVec 256)) )(let ((?x3517 (storage_t x_0 x_1 x_SLOAD_0 w_1 4 w)))
 (let ((?x192 (storage_s x_0 x_1 x_SLOAD_0 w_1 5 w)))
 (= ?x192 ?x3517))))
 ))
 (let (($x3723 (exc_halt_t 4)))
 (let (($x11317 (exc_halt_s 5)))
 (let (($x7362 (= $x11317 $x3723)))
 (let (($x893 (forall ((n (_ BitVec 6)) )(let ((?x3967 (stack_t x_0 x_1 x_SLOAD_0 w_1 4 n)))
 (let ((?x6080 (stack_s x_0 x_1 x_SLOAD_0 w_1 5 n)))
 (let (($x11833 (= ?x6080 ?x3967)))
 (let ((?x1098 (sc_t 4)))
 (let (($x3316 (bvsle ?x1098 n)))
 (or $x3316 $x11833)))))))
 ))
 (let ((?x1098 (sc_t 4)))
 (let ((?x4319 (sc_s 5)))
 (let (($x11451 (= ?x4319 ?x1098)))
 (let ((?x9897 (used_gas_t x_0 x_1 x_SLOAD_0 w_1 0)))
 (let ((?x7663 (used_gas_s x_0 x_1 x_SLOAD_0 w_1 0)))
 (let (($x3042 (= ?x7663 ?x9897)))
 (let (($x3127 (forall ((w (_ BitVec 256)) )(let ((?x5708 (storage_t x_0 x_1 x_SLOAD_0 w_1 0 w)))
 (let ((?x9181 (storage_s x_0 x_1 x_SLOAD_0 w_1 0 w)))
 (= ?x9181 ?x5708))))
 ))
 (let (($x56 (exc_halt_t 0)))
 (let (($x57 (exc_halt_s 0)))
 (let (($x58 (= $x57 $x56)))
 (let (($x5742 (forall ((n (_ BitVec 6)) )(let ((?x63 (sc_t 0)))
 (let (($x6686 (bvsle ?x63 n)))
 (let ((?x4017 (stack_t x_0 x_1 x_SLOAD_0 w_1 0 n)))
 (let ((?x5746 (stack_s x_0 x_1 x_SLOAD_0 w_1 0 n)))
 (let (($x1068 (= ?x5746 ?x4017)))
 (or $x1068 $x6686)))))))
 ))
 (let ((?x63 (sc_t 0)))
 (let ((?x72 (sc_s 0)))
 (let (($x73 (= ?x72 ?x63)))
 (let (($x7477 (= $x3723 (or (exc_halt_t 3) (not (bvsle (_ bv0 6) (bvadd (_ bv63 6) (sc_t 3))))))))
 (let (($x3692 (forall ((w (_ BitVec 256)) )(let ((?x6693 (storage_t x_0 x_1 x_SLOAD_0 w_1 3 w)))
 (let ((?x3517 (storage_t x_0 x_1 x_SLOAD_0 w_1 4 w)))
 (= ?x3517 ?x6693))))
 ))
 (let (($x7098 (forall ((n (_ BitVec 6)) )(let ((?x7606 (stack_t x_0 x_1 x_SLOAD_0 w_1 3 n)))
 (let ((?x3967 (stack_t x_0 x_1 x_SLOAD_0 w_1 4 n)))
 (or (= ?x3967 ?x7606) (bvsle (bvadd (_ bv63 6) (sc_t 3)) n)))))
 ))
 (let ((?x6438 (sc_t 3)))
 (let (($x8206 (= ?x1098 ?x6438)))
 (let (($x4271 (= (used_gas_t x_0 x_1 x_SLOAD_0 w_1 4) (+ 200 (used_gas_t x_0 x_1 x_SLOAD_0 w_1 3)))))
 (let ((?x7132 (bvadd (_ bv63 6) ?x6438)))
 (let ((?x285 (stack_t x_0 x_1 x_SLOAD_0 w_1 3 ?x7132)))
 (let (($x11735 (= (stack_t x_0 x_1 x_SLOAD_0 w_1 4 (bvadd (_ bv63 6) ?x1098)) (storage_t x_0 x_1 x_SLOAD_0 w_1 3 ?x285))))
 (let (($x6783 (exc_halt_t 3)))
 (let (($x952 (= $x6783 (or (exc_halt_t 2) (not (bvsle (_ bv0 6) (bvadd (_ bv60 6) (sc_t 2))))))))
 (let (($x5479 (forall ((w (_ BitVec 256)) )(let ((?x223 (storage_t x_0 x_1 x_SLOAD_0 w_1 2 w)))
 (let ((?x6693 (storage_t x_0 x_1 x_SLOAD_0 w_1 3 w)))
 (= ?x6693 ?x223))))
 ))
 (let (($x11037 (forall ((n (_ BitVec 6)) )(let ((?x2714 (sc_t 2)))
 (let ((?x4673 (bvadd (_ bv60 6) ?x2714)))
 (let (($x8588 (bvsle ?x4673 n)))
 (let ((?x4780 (stack_t x_0 x_1 x_SLOAD_0 w_1 2 n)))
 (let ((?x7606 (stack_t x_0 x_1 x_SLOAD_0 w_1 3 n)))
 (or (= ?x7606 ?x4780) $x8588)))))))
 ))
 (let ((?x10738 (used_gas_t x_0 x_1 x_SLOAD_0 w_1 3)))
 (let (($x11269 (= (stack_t x_0 x_1 x_SLOAD_0 w_1 3 (bvadd (_ bv62 6) ?x6438)) (stack_t x_0 x_1 x_SLOAD_0 w_1 2 (bvadd (_ bv62 6) (sc_t 2))))))
 (let (($x4243 (= (stack_t x_0 x_1 x_SLOAD_0 w_1 3 (bvadd (_ bv61 6) ?x6438)) (stack_t x_0 x_1 x_SLOAD_0 w_1 2 (bvadd (_ bv61 6) (sc_t 2))))))
 (let (($x4207 (= (stack_t x_0 x_1 x_SLOAD_0 w_1 3 (bvadd (_ bv60 6) ?x6438)) (stack_t x_0 x_1 x_SLOAD_0 w_1 2 (bvadd (_ bv63 6) (sc_t 2))))))
 (let (($x6904 (= ?x285 (stack_t x_0 x_1 x_SLOAD_0 w_1 2 (bvadd (_ bv60 6) (sc_t 2))))))
 (let (($x3508 (exc_halt_t 1)))
 (let (($x1541 (or $x3508 (not (= ((_ extract 6 6) (bvadd (_ bv1 7) (concat (_ bv0 1) (sc_t 1)))) (_ bv0 1))))))
 (let (($x5252 (exc_halt_t 2)))
 (let (($x10027 (= $x5252 $x1541)))
 (let (($x8976 (forall ((w (_ BitVec 256)) )(let ((?x9941 (storage_t x_0 x_1 x_SLOAD_0 w_1 1 w)))
 (let ((?x223 (storage_t x_0 x_1 x_SLOAD_0 w_1 2 w)))
 (= ?x223 ?x9941))))
 ))
 (let (($x608 (forall ((n (_ BitVec 6)) )(let ((?x4571 (stack_t x_0 x_1 x_SLOAD_0 w_1 1 n)))
 (let ((?x4780 (stack_t x_0 x_1 x_SLOAD_0 w_1 2 n)))
 (let ((?x8347 (sc_t 1)))
 (let (($x866 (bvsle ?x8347 n)))
 (or $x866 (= ?x4780 ?x4571)))))))
 ))
 (let ((?x2714 (sc_t 2)))
 (let (($x5193 (= ?x2714 (bvadd (_ bv1 6) (sc_t 1)))))
 (let ((?x2482 (used_gas_t x_0 x_1 x_SLOAD_0 w_1 2)))
 (let (($x6076 (not (= ((_ extract 6 6) (bvadd (_ bv1 7) (concat (_ bv0 1) ?x63))) (_ bv0 1)))))
 (let (($x10121 (forall ((w (_ BitVec 256)) )(let ((?x5708 (storage_t x_0 x_1 x_SLOAD_0 w_1 0 w)))
 (let ((?x9941 (storage_t x_0 x_1 x_SLOAD_0 w_1 1 w)))
 (= ?x9941 ?x5708))))
 ))
 (let (($x1997 (forall ((n (_ BitVec 6)) )(let ((?x4017 (stack_t x_0 x_1 x_SLOAD_0 w_1 0 n)))
 (let ((?x4571 (stack_t x_0 x_1 x_SLOAD_0 w_1 1 n)))
 (or (= ?x4571 ?x4017) (bvsle (bvadd (_ bv62 6) (sc_t 0)) n)))))
 ))
 (let ((?x8347 (sc_t 1)))
 (let (($x7135 (= ?x8347 (bvadd (_ bv1 6) ?x63))))
 (let (($x6489 (= (stack_t x_0 x_1 x_SLOAD_0 w_1 1 (bvadd (_ bv63 6) ?x63)) (stack_t x_0 x_1 x_SLOAD_0 w_1 0 (bvadd (_ bv63 6) ?x63)))))
 (let ((?x11351 (bvadd (_ bv62 6) ?x63)))
 (let ((?x11740 (stack_t x_0 x_1 x_SLOAD_0 w_1 0 ?x11351)))
 (let (($x7471 (= $x11317 (or (exc_halt_s 4) (not (bvsle (_ bv0 6) (bvadd (_ bv62 6) (sc_s 4))))))))
 (let (($x2653 (forall ((w (_ BitVec 256)) )(let ((?x8729 (storage_s x_0 x_1 x_SLOAD_0 w_1 4 w)))
 (let ((?x192 (storage_s x_0 x_1 x_SLOAD_0 w_1 5 w)))
 (= ?x192 ?x8729))))
 ))
 (let (($x8628 (forall ((n (_ BitVec 6)) )(let ((?x4305 (sc_s 4)))
 (let ((?x9107 (bvadd (_ bv62 6) ?x4305)))
 (let (($x9713 (bvsle ?x9107 n)))
 (let ((?x5989 (stack_s x_0 x_1 x_SLOAD_0 w_1 4 n)))
 (let ((?x6080 (stack_s x_0 x_1 x_SLOAD_0 w_1 5 n)))
 (or (= ?x6080 ?x5989) $x9713)))))))
 ))
 (let ((?x4305 (sc_s 4)))
 (let (($x5774 (= ?x4319 ?x4305)))
 (let (($x7664 (= (used_gas_s x_0 x_1 x_SLOAD_0 w_1 5) (+ 3 (used_gas_s x_0 x_1 x_SLOAD_0 w_1 4)))))
 (let ((?x7978 (bvadd (_ bv63 6) ?x4305)))
 (let ((?x1055 (stack_s x_0 x_1 x_SLOAD_0 w_1 4 ?x7978)))
 (let ((?x9107 (bvadd (_ bv62 6) ?x4305)))
 (let ((?x3080 (stack_s x_0 x_1 x_SLOAD_0 w_1 4 ?x9107)))
 (let (($x7172 (exc_halt_s 4)))
 (let (($x234 (= $x7172 (or (exc_halt_s 3) (not (bvsle (_ bv0 6) (bvadd (_ bv60 6) (sc_s 3))))))))
 (let (($x11270 (forall ((w (_ BitVec 256)) )(let ((?x9772 (storage_s x_0 x_1 x_SLOAD_0 w_1 3 w)))
 (let ((?x8729 (storage_s x_0 x_1 x_SLOAD_0 w_1 4 w)))
 (= ?x8729 ?x9772))))
 ))
 (let (($x865 (forall ((n (_ BitVec 6)) )(let ((?x8946 (stack_s x_0 x_1 x_SLOAD_0 w_1 3 n)))
 (let ((?x5989 (stack_s x_0 x_1 x_SLOAD_0 w_1 4 n)))
 (or (= ?x5989 ?x8946) (bvsle (bvadd (_ bv60 6) (sc_s 3)) n)))))
 ))
 (let ((?x275 (sc_s 3)))
 (let (($x4885 (= ?x4305 ?x275)))
 (let ((?x8795 (used_gas_s x_0 x_1 x_SLOAD_0 w_1 4)))
 (let (($x6223 (= (stack_s x_0 x_1 x_SLOAD_0 w_1 4 (bvadd (_ bv61 6) ?x4305)) (stack_s x_0 x_1 x_SLOAD_0 w_1 3 (bvadd (_ bv61 6) ?x275)))))
 (let (($x8140 (= (stack_s x_0 x_1 x_SLOAD_0 w_1 4 (bvadd (_ bv60 6) ?x4305)) (stack_s x_0 x_1 x_SLOAD_0 w_1 3 (bvadd (_ bv63 6) ?x275)))))
 (let (($x247 (exc_halt_s 2)))
 (let (($x8075 (or $x247 (not (= ((_ extract 6 6) (bvadd (_ bv1 7) (concat (_ bv0 1) (sc_s 2)))) (_ bv0 1))))))
 (let (($x292 (exc_halt_s 3)))
 (let (($x8141 (forall ((w (_ BitVec 256)) )(let ((?x11513 (storage_s x_0 x_1 x_SLOAD_0 w_1 2 w)))
 (let ((?x9772 (storage_s x_0 x_1 x_SLOAD_0 w_1 3 w)))
 (= ?x9772 ?x11513))))
 ))
 (let (($x2205 (forall ((n (_ BitVec 6)) )(let ((?x2809 (stack_s x_0 x_1 x_SLOAD_0 w_1 2 n)))
 (let ((?x8946 (stack_s x_0 x_1 x_SLOAD_0 w_1 3 n)))
 (or (= ?x8946 ?x2809) (bvsle (sc_s 2) n)))))
 ))
 (let ((?x10606 (used_gas_s x_0 x_1 x_SLOAD_0 w_1 3)))
 (let (($x10505 (= $x247 (or (exc_halt_s 1) (not (bvsle (_ bv0 6) (bvadd (_ bv63 6) (sc_s 1))))))))
 (let (($x10735 (forall ((w (_ BitVec 256)) )(let ((?x10849 (storage_s x_0 x_1 x_SLOAD_0 w_1 1 w)))
 (let ((?x11513 (storage_s x_0 x_1 x_SLOAD_0 w_1 2 w)))
 (= ?x11513 ?x10849))))
 ))
 (let (($x7705 (forall ((n (_ BitVec 6)) )(let ((?x4430 (stack_s x_0 x_1 x_SLOAD_0 w_1 1 n)))
 (let ((?x2809 (stack_s x_0 x_1 x_SLOAD_0 w_1 2 n)))
 (or (bvsle (bvadd (_ bv63 6) (sc_s 1)) n) (= ?x2809 ?x4430)))))
 ))
 (let ((?x154 (sc_s 1)))
 (let ((?x218 (sc_s 2)))
 (let (($x564 (= ?x218 ?x154)))
 (let ((?x11184 (used_gas_s x_0 x_1 x_SLOAD_0 w_1 2)))
 (let ((?x6951 (bvadd (_ bv63 6) ?x154)))
 (let ((?x177 (stack_s x_0 x_1 x_SLOAD_0 w_1 1 ?x6951)))
 (let (($x10463 (= (stack_s x_0 x_1 x_SLOAD_0 w_1 2 (bvadd (_ bv63 6) ?x218)) (storage_s x_0 x_1 x_SLOAD_0 w_1 1 ?x177))))
 (let (($x5122 (not (= ((_ extract 6 6) (bvadd (_ bv1 7) (concat (_ bv0 1) ?x72))) (_ bv0 1)))))
 (let (($x189 (exc_halt_s 1)))
 (let (($x3113 (forall ((w (_ BitVec 256)) )(let ((?x9181 (storage_s x_0 x_1 x_SLOAD_0 w_1 0 w)))
 (let ((?x10849 (storage_s x_0 x_1 x_SLOAD_0 w_1 1 w)))
 (= ?x10849 ?x9181))))
 ))
 (let (($x3805 (forall ((n (_ BitVec 6)) )(let ((?x5746 (stack_s x_0 x_1 x_SLOAD_0 w_1 0 n)))
 (let ((?x4430 (stack_s x_0 x_1 x_SLOAD_0 w_1 1 n)))
 (or (= ?x4430 ?x5746) (bvsle (bvadd (_ bv62 6) (sc_s 0)) n)))))
 ))
 (let (($x5483 (= ?x154 (bvadd (_ bv1 6) ?x72))))
 (let (($x2832 (= (stack_s x_0 x_1 x_SLOAD_0 w_1 1 (bvadd (_ bv63 6) ?x72)) (stack_s x_0 x_1 x_SLOAD_0 w_1 0 (bvadd (_ bv63 6) ?x72)))))
 (let ((?x3221 (bvadd (_ bv62 6) ?x72)))
 (let ((?x6722 (stack_s x_0 x_1 x_SLOAD_0 w_1 0 ?x3221)))
 (let (($x8581 (forall ((w (_ BitVec 256)) )(let (($x2466 (= w (stack_s x_0 x_1 x_SLOAD_0 w_1 1 (bvadd (_ bv63 6) (sc_s 1))))))
 (let ((?x9181 (storage_s x_0 x_1 x_SLOAD_0 w_1 0 w)))
 (= ?x9181 (ite $x2466 x_SLOAD_0 (_ bv0 256))))))
 ))
 (let (($x891 (= ?x7663 0)))
 (let (($x11124 (not $x57)))
 (let (($x8486 (= (stack_s x_0 x_1 x_SLOAD_0 w_1 0 (_ bv1 6)) x_1)))
 (let (($x5691 (= (stack_s x_0 x_1 x_SLOAD_0 w_1 0 (_ bv0 6)) x_0)))
 (let (($x6396 (= ?x72 (_ bv2 6))))
 (and $x6396 $x5691 $x8486 $x11124 $x891 $x8581 (= ?x177 ?x6722) (= (stack_s x_0 x_1 x_SLOAD_0 w_1 1 ?x3221) ?x6722) $x2832 (= (used_gas_s x_0 x_1 x_SLOAD_0 w_1 1) (+ 3 ?x7663)) $x5483 $x3805 $x3113 (= $x189 (or $x57 $x5122 (not (bvsle (_ bv0 6) ?x3221)))) $x10463 (= ?x11184 (+ 200 (used_gas_s x_0 x_1 x_SLOAD_0 w_1 1))) $x564 $x7705 $x10735 $x10505 (= (stack_s x_0 x_1 x_SLOAD_0 w_1 3 ?x218) w_1) (= ?x10606 (+ 3 ?x11184)) (= ?x275 (bvadd (_ bv1 6) ?x218)) $x2205 $x8141 (= $x292 $x8075) (= ?x1055 (stack_s x_0 x_1 x_SLOAD_0 w_1 3 (bvadd (_ bv60 6) ?x275))) $x8140 $x6223 (= ?x3080 (stack_s x_0 x_1 x_SLOAD_0 w_1 3 (bvadd (_ bv62 6) ?x275))) (= ?x8795 (+ 3 ?x10606)) $x4885 $x865 $x11270 $x234 (= (stack_s x_0 x_1 x_SLOAD_0 w_1 5 (bvadd (_ bv63 6) ?x4319)) ?x3080) (= (stack_s x_0 x_1 x_SLOAD_0 w_1 5 (bvadd (_ bv62 6) ?x4319)) ?x1055) $x7664 $x5774 $x8628 $x2653 $x7471 (= (stack_t x_0 x_1 x_SLOAD_0 w_1 1 (bvadd (_ bv63 6) ?x8347)) ?x11740) (= (stack_t x_0 x_1 x_SLOAD_0 w_1 1 ?x11351) ?x11740) $x6489 (= (used_gas_t x_0 x_1 x_SLOAD_0 w_1 1) (+ 3 ?x9897)) $x7135 $x1997 $x10121 (= $x3508 (or $x56 (not (bvsle (_ bv0 6) ?x11351)) $x6076)) (= (stack_t x_0 x_1 x_SLOAD_0 w_1 2 ?x8347) w_1) (= ?x2482 (+ 3 (used_gas_t x_0 x_1 x_SLOAD_0 w_1 1))) $x5193 $x608 $x8976 $x10027 $x6904 $x4207 $x4243 $x11269 (= ?x10738 (+ 3 ?x2482)) (= ?x6438 ?x2714) $x11037 $x5479 $x952 $x11735 $x4271 $x8206 $x7098 $x3692 $x7477 $x73 $x5742 $x58 $x3127 $x3042 (not (and $x11451 $x893 $x7362 $x4170)))))))))))))))))))))))))))))))))))))))))))))))))))))))))))))))))))))))))))))))))))))))))))))))))))))))))))
 )
(check-sat)
(get-proof)
